benchmark/results/graph__10-1000-0.10-02_13/graph__10-1000-0.10-02_13_Quinton_Benders_primal_sub.lp
\ This file has been generated by DOcplex
\ ENCODING=ISO-8859-1
\Problem name: Quinton Benders_primal_sub

Maximize
 obj: tau
Subject To
 c1: tau <= 0.000839630563
 c2: y_a0_proc_0 + y_a0_proc_1 - tau = 0
 c3: y_a0_proc_0 <= 0
 c4: y_a0_proc_1 <= 1
 c5: tau <= 0.000798722045
 c6: y_a1_proc_0 + y_a1_proc_1 - tau = 0
 c7: y_a1_proc_0 <= 0
 c8: y_a1_proc_1 <= 1
 c9: tau <= 0.000793650794
 c10: y_a2_proc_0 - tau = 0
 c11: y_a2_proc_0 <= 1
 c12: tau <= 0.001472754050
 c13: y_a3_proc_0 + y_a3_proc_1 - tau = 0
 c14: y_a3_proc_0 <= 1
 c15: y_a3_proc_1 <= 0
 c16: tau <= 0.001074113856
 c17: y_a4_proc_0 + y_a4_proc_1 - tau = 0
 c18: y_a4_proc_0 <= 0
 c19: y_a4_proc_1 <= 1
 c20: tau <= 0.006134969325
 c21: y_a5_proc_0 + y_a5_proc_1 - tau = 0
 c22: y_a5_proc_0 <= 1
 c23: y_a5_proc_1 <= 0
 c24: tau <= 0.001086956522
 c25: y_a6_proc_0 + y_a6_proc_1 - tau = 0
 c26: y_a6_proc_0 <= 1
 c27: y_a6_proc_1 <= 0
 c28: tau <= 0.001048218029
 c29: y_a7_proc_0 - tau = 0
 c30: y_a7_proc_0 <= 1
 c31: tau <= 0.000914076782
 c32: y_a8_proc_0 + y_a8_proc_1 - tau = 0
 c33: y_a8_proc_0 <= 0
 c34: y_a8_proc_1 <= 1
 c35: tau <= 0.000773993808
 c36: y_a9_proc_0 - tau = 0
 c37: y_a9_proc_0 <= 1
 c38: u_a0 - u_a1 - 943 y_a1_proc_0 - 1252 y_a1_proc_1 >= -1
 c39: u_a1 - u_a2 - 1260 y_a2_proc_0 >= 0
 c40: u_a0 - u_a3 - 679 y_a3_proc_0 - 1053 y_a3_proc_1 >= -1
 c41: u_a4 - u_a1 - 943 y_a1_proc_0 - 1252 y_a1_proc_1 >= -1
 c42: u_a4 - u_a5 - 163 y_a5_proc_0 - 1119 y_a5_proc_1 >= 0
 c43: u_a3 - u_a6 - 920 y_a6_proc_0 - 947 y_a6_proc_1 >= 0
 c44: u_a7 - u_a2 - 1260 y_a2_proc_0 >= 0
 c45: u_a3 - u_a8 - 1251 y_a8_proc_0 - 1094 y_a8_proc_1 >= 0
 c46: u_a2 - u_a9 - 1292 y_a9_proc_0 >= 0
 c47: u_a9 - u_a3 - 679 y_a3_proc_0 - 1053 y_a3_proc_1 >= -1
 c48: u_a4 - u_a9 - 1292 y_a9_proc_0 >= 0
 c49: u_a8 - u_a7 - 954 y_a7_proc_0 >= -1
 c50: u_a8 - u_a4 - 598 y_a4_proc_0 - 931 y_a4_proc_1 >= -1
 c51: u_a6 - u_a7 - 954 y_a7_proc_0 >= -1
 c52: u_a9 - u_a8 - 1251 y_a8_proc_0 - 1094 y_a8_proc_1 >= 0
 c53: u_a6 - u_a4 - 598 y_a4_proc_0 - 931 y_a4_proc_1 >= 0
 c54: u_a5 - u_a0 - 697 y_a0_proc_0 - 1191 y_a0_proc_1 >= 0
 c55: u_a1 - u_a0 - 1191 y_a0_proc_1 >= 0
 c56: u_a1 - u_a0 - 697 y_a0_proc_0 >= -2584
 c57: u_a0 - u_a1 - 1252 y_a1_proc_1 >= -1
 c58: u_a0 - u_a1 - 943 y_a1_proc_0 >= -2585
 c59: u_a2 - u_a0 - 697 y_a0_proc_0 >= -1
 c60: u_a0 - u_a2 - 1260 y_a2_proc_0 >= -2584
 c61: u_a3 - u_a0 - 1191 y_a0_proc_1 >= -2584
 c62: u_a3 - u_a0 - 697 y_a0_proc_0 >= -2584
 c63: u_a0 - u_a3 - 1053 y_a3_proc_1 >= -1
 c64: u_a0 - u_a3 - 679 y_a3_proc_0 >= -1
 c65: u_a4 - u_a0 - 1191 y_a0_proc_1 >= 0
 c66: u_a4 - u_a0 - 697 y_a0_proc_0 >= -2584
 c67: u_a0 - u_a4 - 931 y_a4_proc_1 >= -1
 c68: u_a0 - u_a4 - 598 y_a4_proc_0 >= -2585
 c69: u_a5 - u_a0 - 1191 y_a0_proc_1 >= 0
 c70: u_a5 - u_a0 - 697 y_a0_proc_0 >= 0
 c71: u_a0 - u_a5 - 1119 y_a5_proc_1 >= -2585
 c72: u_a0 - u_a5 - 163 y_a5_proc_0 >= -2585
 c73: u_a6 - u_a0 - 1191 y_a0_proc_1 >= -2584
 c74: u_a6 - u_a0 - 697 y_a0_proc_0 >= -2584
 c75: u_a0 - u_a6 - 947 y_a6_proc_1 >= -1
 c76: u_a0 - u_a6 - 920 y_a6_proc_0 >= -1
 c77: u_a7 - u_a0 - 697 y_a0_proc_0 >= -2584
 c78: u_a0 - u_a7 - 954 y_a7_proc_0 >= -1
 c79: u_a8 - u_a0 - 1191 y_a0_proc_1 >= -1
 c80: u_a8 - u_a0 - 697 y_a0_proc_0 >= -2585
 c81: u_a0 - u_a8 - 1094 y_a8_proc_1 >= 0
 c82: u_a0 - u_a8 - 1251 y_a8_proc_0 >= -2584
 c83: u_a9 - u_a0 - 697 y_a0_proc_0 >= -2585
 c84: u_a0 - u_a9 - 1292 y_a9_proc_0 >= 0
 c85: u_a2 - u_a1 - 943 y_a1_proc_0 >= -2585
 c86: u_a1 - u_a2 - 1260 y_a2_proc_0 >= 0
 c87: u_a3 - u_a1 - 1252 y_a1_proc_1 >= -2584
 c88: u_a3 - u_a1 - 943 y_a1_proc_0 >= -2584
 c89: u_a1 - u_a3 - 1053 y_a3_proc_1 >= -1
 c90: u_a1 - u_a3 - 679 y_a3_proc_0 >= -1
 c91: u_a4 - u_a1 - 1252 y_a1_proc_1 >= -1
 c92: u_a4 - u_a1 - 943 y_a1_proc_0 >= -2585
 c93: u_a1 - u_a4 - 931 y_a4_proc_1 >= 0
 c94: u_a1 - u_a4 - 598 y_a4_proc_0 >= -2584
 c95: u_a5 - u_a1 - 1252 y_a1_proc_1 >= -2585
 c96: u_a5 - u_a1 - 943 y_a1_proc_0 >= -2585
 c97: u_a1 - u_a5 - 1119 y_a5_proc_1 >= 0
 c98: u_a1 - u_a5 - 163 y_a5_proc_0 >= 0
 c99: u_a6 - u_a1 - 1252 y_a1_proc_1 >= -2585
 c100: u_a6 - u_a1 - 943 y_a1_proc_0 >= -2585
 c101: u_a1 - u_a6 - 947 y_a6_proc_1 >= 0
 c102: u_a1 - u_a6 - 920 y_a6_proc_0 >= 0
 c103: u_a7 - u_a1 - 943 y_a1_proc_0 >= -1
 c104: u_a1 - u_a7 - 954 y_a7_proc_0 >= -2584
 c105: u_a8 - u_a1 - 1252 y_a1_proc_1 >= -2
 c106: u_a8 - u_a1 - 943 y_a1_proc_0 >= -2586
 c107: u_a1 - u_a8 - 1094 y_a8_proc_1 >= 1
 c108: u_a1 - u_a8 - 1251 y_a8_proc_0 >= -2583
 c109: u_a9 - u_a1 - 943 y_a1_proc_0 >= -2585
 c110: u_a1 - u_a9 - 1292 y_a9_proc_0 >= 0
 c111: u_a3 - u_a2 - 1260 y_a2_proc_0 >= 0
 c112: u_a2 - u_a3 - 679 y_a3_proc_0 >= -1
 c113: u_a4 - u_a2 - 1260 y_a2_proc_0 >= -2584
 c114: u_a2 - u_a4 - 598 y_a4_proc_0 >= -1
 c115: u_a5 - u_a2 - 1260 y_a2_proc_0 >= 0
 c116: u_a2 - u_a5 - 163 y_a5_proc_0 >= -1
 c117: u_a6 - u_a2 - 1260 y_a2_proc_0 >= 0
 c118: u_a2 - u_a6 - 920 y_a6_proc_0 >= -1
 c119: u_a7 - u_a2 - 1260 y_a2_proc_0 >= 0
 c120: u_a2 - u_a7 - 954 y_a7_proc_0 >= -1
 c121: u_a8 - u_a2 - 1260 y_a2_proc_0 >= -2585
 c122: u_a2 - u_a8 - 1251 y_a8_proc_0 >= 0
 c123: u_a9 - u_a2 - 1260 y_a2_proc_0 >= -1
 c124: u_a2 - u_a9 - 1292 y_a9_proc_0 >= 0
 c125: u_a4 - u_a3 - 1053 y_a3_proc_1 >= -2585
 c126: u_a4 - u_a3 - 679 y_a3_proc_0 >= -2585
 c127: u_a3 - u_a4 - 931 y_a4_proc_1 >= 0
 c128: u_a3 - u_a4 - 598 y_a4_proc_0 >= 0
 c129: u_a5 - u_a3 - 1053 y_a3_proc_1 >= -2585
 c130: u_a5 - u_a3 - 679 y_a3_proc_0 >= -1
 c131: u_a3 - u_a5 - 1119 y_a5_proc_1 >= -2584
 c132: u_a3 - u_a5 - 163 y_a5_proc_0 >= 0
 c133: u_a6 - u_a3 - 1053 y_a3_proc_1 >= -2585
 c134: u_a6 - u_a3 - 679 y_a3_proc_0 >= -1
 c135: u_a3 - u_a6 - 947 y_a6_proc_1 >= -2584
 c136: u_a3 - u_a6 - 920 y_a6_proc_0 >= 0
 c137: u_a7 - u_a3 - 679 y_a3_proc_0 >= -1
 c138: u_a3 - u_a7 - 954 y_a7_proc_0 >= 0
 c139: u_a8 - u_a3 - 1053 y_a3_proc_1 >= -2
 c140: u_a8 - u_a3 - 679 y_a3_proc_0 >= -2
 c141: u_a3 - u_a8 - 1094 y_a8_proc_1 >= -2583
 c142: u_a3 - u_a8 - 1251 y_a8_proc_0 >= -2583
 c143: u_a9 - u_a3 - 679 y_a3_proc_0 >= -1
 c144: u_a3 - u_a9 - 1292 y_a9_proc_0 >= 0
 c145: u_a5 - u_a4 - 931 y_a4_proc_1 >= -2584
 c146: u_a5 - u_a4 - 598 y_a4_proc_0 >= -2584
 c147: u_a4 - u_a5 - 1119 y_a5_proc_1 >= -1
 c148: u_a4 - u_a5 - 163 y_a5_proc_0 >= -1
 c149: u_a6 - u_a4 - 931 y_a4_proc_1 >= -2584
 c150: u_a6 - u_a4 - 598 y_a4_proc_0 >= -2584
 c151: u_a4 - u_a6 - 947 y_a6_proc_1 >= -1
 c152: u_a4 - u_a6 - 920 y_a6_proc_0 >= -1
 c153: u_a7 - u_a4 - 598 y_a4_proc_0 >= -2584
 c154: u_a4 - u_a7 - 954 y_a7_proc_0 >= -1
 c155: u_a8 - u_a4 - 931 y_a4_proc_1 >= -1
 c156: u_a8 - u_a4 - 598 y_a4_proc_0 >= -2585
 c157: u_a4 - u_a8 - 1094 y_a8_proc_1 >= 0
 c158: u_a4 - u_a8 - 1251 y_a8_proc_0 >= -2584
 c159: u_a9 - u_a4 - 598 y_a4_proc_0 >= -2585
 c160: u_a4 - u_a9 - 1292 y_a9_proc_0 >= 0
 c161: u_a6 - u_a5 - 1119 y_a5_proc_1 >= -2584
 c162: u_a6 - u_a5 - 163 y_a5_proc_0 >= 0
 c163: u_a5 - u_a6 - 947 y_a6_proc_1 >= -2585
 c164: u_a5 - u_a6 - 920 y_a6_proc_0 >= -1
 c165: u_a7 - u_a5 - 163 y_a5_proc_0 >= 0
 c166: u_a5 - u_a7 - 954 y_a7_proc_0 >= -1
 c167: u_a8 - u_a5 - 1119 y_a5_proc_1 >= -2585
 c168: u_a8 - u_a5 - 163 y_a5_proc_0 >= -2585
 c169: u_a5 - u_a8 - 1094 y_a8_proc_1 >= 0
 c170: u_a5 - u_a8 - 1251 y_a8_proc_0 >= 0
 c171: u_a9 - u_a5 - 163 y_a5_proc_0 >= -1
 c172: u_a5 - u_a9 - 1292 y_a9_proc_0 >= 0
 c173: u_a7 - u_a6 - 920 y_a6_proc_0 >= -1
 c174: u_a6 - u_a7 - 954 y_a7_proc_0 >= 0
 c175: u_a8 - u_a6 - 947 y_a6_proc_1 >= -2
 c176: u_a8 - u_a6 - 920 y_a6_proc_0 >= -2
 c177: u_a6 - u_a8 - 1094 y_a8_proc_1 >= -2583
 c178: u_a6 - u_a8 - 1251 y_a8_proc_0 >= -2583
 c179: u_a9 - u_a6 - 920 y_a6_proc_0 >= -1
 c180: u_a6 - u_a9 - 1292 y_a9_proc_0 >= 0
 c181: u_a8 - u_a7 - 954 y_a7_proc_0 >= -2585
 c182: u_a7 - u_a8 - 1251 y_a8_proc_0 >= 0
 c183: u_a9 - u_a7 - 954 y_a7_proc_0 >= -1
 c184: u_a7 - u_a9 - 1292 y_a9_proc_0 >= 0
 c185: u_a9 - u_a8 - 1251 y_a8_proc_0 >= -2584
 c186: u_a8 - u_a9 - 1292 y_a9_proc_0 >= -1

Bounds
End
