benchmark/results/graph__10-1000-0.10-02_13/graph__10-1000-0.10-02_13_Quinton_Benders_primal_sub.txt
solution for: Quinton Benders_primal_sub
objective: 0.000189825
status: OPTIMAL_SOLUTION(2)
u_a0=0.562
u_a1=1.208
u_a2=0.549
u_a3=1.175
u_a4=0.819
u_a5=0.788
u_a6=1.000
u_a7=0.819
u_a9=0.304
tau=0.000
y_a0_proc_1=0.000
y_a1_proc_1=0.000
y_a2_proc_0=0.000
y_a3_proc_0=0.000
y_a4_proc_1=0.000
y_a5_proc_0=0.000
y_a6_proc_0=0.000
y_a7_proc_0=0.000
y_a8_proc_1=0.000
y_a9_proc_0=0.000
